Welcome to the CBC MILP Solver 
Version: 2.10.12 
Build Date: Aug 20 2024 

command line - /opt/homebrew/bin/cbc computational_data/lp/ER_n20_p020_s5.lp seconds 10.0 solve solu computational_data/solutions/ER_n20_p020_s5.sol (default strategy 1)
seconds was changed from 1e+100 to 10
Continuous objective value is 8.04386 - 0.00 seconds
Cgl0003I 0 fixed, 0 tightened bounds, 13 strengthened rows, 0 substitutions
Cgl0003I 0 fixed, 0 tightened bounds, 10 strengthened rows, 0 substitutions
Cgl0003I 0 fixed, 0 tightened bounds, 12 strengthened rows, 0 substitutions
Cgl0004I processed model has 108 rows, 38 columns (38 integer (38 of which binary)) and 403 elements
Cutoff increment increased from 1e-05 to 0.9999
Cbc0038I Initial state - 27 integers unsatisfied sum - 7.125
Cbc0038I Pass   1: suminf.    5.00000 (15) obj. 10 iterations 21
Cbc0038I Pass   2: suminf.    4.00000 (8) obj. 10 iterations 16
Cbc0038I Pass   3: suminf.    4.00000 (8) obj. 10 iterations 1
Cbc0038I Pass   4: suminf.    2.50000 (5) obj. 11.5 iterations 15
Cbc0038I Pass   5: suminf.    2.50000 (5) obj. 11.5 iterations 6
Cbc0038I Pass   6: suminf.    0.00000 (0) obj. 13 iterations 9
Cbc0038I Solution found of 13
Cbc0038I Rounding solution of 12 is better than previous of 13

Cbc0038I Before mini branch and bound, 9 integers at bound fixed and 0 continuous
Cbc0038I Full problem 108 rows 38 columns, reduced to 80 rows 28 columns
Cbc0038I Mini branch and bound improved solution from 12 to 10 (0.01 seconds)
Cbc0038I Round again with cutoff of 8.96259
Cbc0038I Reduced cost fixing fixed 2 variables on major pass 2
Cbc0038I Pass   7: suminf.    6.14381 (22) obj. 8.96259 iterations 14
Cbc0038I Pass   8: suminf.    6.47404 (21) obj. 8.96259 iterations 13
Cbc0038I Pass   9: suminf.    5.57482 (18) obj. 8.96259 iterations 11
Cbc0038I Pass  10: suminf.    5.57482 (18) obj. 8.96259 iterations 3
Cbc0038I Pass  11: suminf.    6.66667 (18) obj. 8.96259 iterations 20
Cbc0038I Pass  12: suminf.    5.83916 (21) obj. 8.96259 iterations 13
Cbc0038I Pass  13: suminf.    6.92518 (19) obj. 8.96259 iterations 23
Cbc0038I Pass  14: suminf.    6.07482 (16) obj. 8.96259 iterations 9
Cbc0038I Pass  15: suminf.    6.07482 (16) obj. 8.96259 iterations 4
Cbc0038I Pass  16: suminf.    5.87011 (20) obj. 8.96259 iterations 15
Cbc0038I Pass  17: suminf.    5.18705 (19) obj. 8.96259 iterations 13
Cbc0038I Pass  18: suminf.    7.00000 (19) obj. 8.96259 iterations 29
Cbc0038I Pass  19: suminf.    6.69444 (24) obj. 8.69444 iterations 16
Cbc0038I Pass  20: suminf.    5.44844 (22) obj. 8.96259 iterations 10
Cbc0038I Pass  21: suminf.    5.18705 (19) obj. 8.96259 iterations 8
Cbc0038I Pass  22: suminf.    5.14964 (17) obj. 8.96259 iterations 6
Cbc0038I Pass  23: suminf.    6.78741 (19) obj. 8.96259 iterations 13
Cbc0038I Pass  24: suminf.    6.03741 (23) obj. 8.96259 iterations 15
Cbc0038I Pass  25: suminf.    5.67297 (21) obj. 8.96259 iterations 32
Cbc0038I Pass  26: suminf.    5.22446 (20) obj. 8.96259 iterations 8
Cbc0038I Pass  27: suminf.    5.14964 (17) obj. 8.96259 iterations 6
Cbc0038I Pass  28: suminf.    6.78741 (19) obj. 8.96259 iterations 21
Cbc0038I Pass  29: suminf.    6.03741 (23) obj. 8.96259 iterations 17
Cbc0038I Pass  30: suminf.    7.42518 (19) obj. 8.96259 iterations 21
Cbc0038I Pass  31: suminf.    6.69444 (24) obj. 8.69444 iterations 18
Cbc0038I Pass  32: suminf.    6.08230 (22) obj. 8.96259 iterations 10
Cbc0038I Pass  33: suminf.    6.04988 (21) obj. 8.96259 iterations 12
Cbc0038I Pass  34: suminf.    5.77379 (23) obj. 8.96259 iterations 15
Cbc0038I Pass  35: suminf.    5.29928 (19) obj. 8.96259 iterations 9
Cbc0038I Pass  36: suminf.    5.14964 (17) obj. 8.96259 iterations 3
Cbc0038I No solution found this major pass
Cbc0038I Before mini branch and bound, 2 integers at bound fixed and 0 continuous
Cbc0038I Full problem 108 rows 38 columns, reduced to 103 rows 36 columns
Cbc0038I Mini branch and bound did not improve solution (0.02 seconds)
Cbc0038I After 0.02 seconds - Feasibility pump exiting with objective of 10 - took 0.01 seconds
Cbc0012I Integer solution of 10 found by feasibility pump after 0 iterations and 0 nodes (0.02 seconds)
Cbc0038I Full problem 108 rows 38 columns, reduced to 78 rows 27 columns
Cbc0031I 4 added rows had average density of 19.75
Cbc0013I At root node, 51 cuts changed objective from 8.625 to 9.0193797 in 5 passes
Cbc0014I Cut generator 0 (Probing) - 1 row cuts average 5.0 elements, 0 column cuts (0 active)  in 0.000 seconds - new frequency is -100
Cbc0014I Cut generator 1 (Gomory) - 78 row cuts average 33.7 elements, 0 column cuts (0 active)  in 0.001 seconds - new frequency is 1
Cbc0014I Cut generator 2 (Knapsack) - 0 row cuts average 0.0 elements, 0 column cuts (0 active)  in 0.000 seconds - new frequency is -100
Cbc0014I Cut generator 3 (Clique) - 0 row cuts average 0.0 elements, 0 column cuts (0 active)  in 0.000 seconds - new frequency is -100
Cbc0014I Cut generator 4 (MixedIntegerRounding2) - 0 row cuts average 0.0 elements, 0 column cuts (0 active)  in 0.000 seconds - new frequency is -100
Cbc0014I Cut generator 5 (FlowCover) - 0 row cuts average 0.0 elements, 0 column cuts (0 active)  in 0.000 seconds - new frequency is -100
Cbc0014I Cut generator 6 (TwoMirCuts) - 118 row cuts average 34.0 elements, 0 column cuts (0 active)  in 0.002 seconds - new frequency is -100
Cbc0001I Search completed - best objective 10, took 90 iterations and 0 nodes (0.03 seconds)
Cbc0035I Maximum depth 0, 2 variables fixed on reduced cost
Cuts at root node changed objective from 8.625 to 9.01938
Probing was tried 5 times and created 1 cuts of which 0 were active after adding rounds of cuts (0.000 seconds)
Gomory was tried 5 times and created 78 cuts of which 0 were active after adding rounds of cuts (0.001 seconds)
Knapsack was tried 5 times and created 0 cuts of which 0 were active after adding rounds of cuts (0.000 seconds)
Clique was tried 5 times and created 0 cuts of which 0 were active after adding rounds of cuts (0.000 seconds)
MixedIntegerRounding2 was tried 5 times and created 0 cuts of which 0 were active after adding rounds of cuts (0.000 seconds)
FlowCover was tried 5 times and created 0 cuts of which 0 were active after adding rounds of cuts (0.000 seconds)
TwoMirCuts was tried 5 times and created 118 cuts of which 0 were active after adding rounds of cuts (0.002 seconds)
ZeroHalf was tried 1 times and created 0 cuts of which 0 were active after adding rounds of cuts (0.000 seconds)

Result - Optimal solution found

Objective value:                10.00000000
Enumerated nodes:               0
Total iterations:               90
Time (CPU seconds):             0.03
Time (Wallclock seconds):       0.03

Total time (CPU seconds):       0.03   (Wallclock seconds):       0.03

